Optimal - objective value 32.00000000
     12 x_1_18                 1                       0
     35 x_2_25                 1                       0
     36 x_3_0                  1                       0
     62 x_4_10                 1                       0
     82 x_5_22                 1                       0
    100 x_6_10                 1                       0
    124 x_7_12                 1                       0
    132 x_8_6                  1                       0
    163 x_9_32                 1                      10
